p cnf 60 200
1 2 3 0
4 5 6 0
7 8 9 0
10 11 12 0
13 14 15 0
16 17 18 0
19 20 21 0
22 23 24 0
25 26 27 0
28 29 30 0
31 32 33 0
34 35 36 0
37 38 39 0
40 41 42 0
43 44 45 0
46 47 48 0
49 50 51 0
52 53 54 0
55 56 57 0
58 59 60 0
-1 -2 0
-1 -3 0
-2 -3 0
-4 -5 0
-4 -6 0
-5 -6 0
-7 -8 0
-7 -9 0
-8 -9 0
-10 -11 0
-10 -12 0
-11 -12 0
-13 -14 0
-13 -15 0
-14 -15 0
-16 -17 0
-16 -18 0
-17 -18 0
-19 -20 0
-19 -21 0
-20 -21 0
-22 -23 0
-22 -24 0
-23 -24 0
-25 -26 0
-25 -27 0
-26 -27 0
-28 -29 0
-28 -30 0
-29 -30 0
-31 -32 0
-31 -33 0
-32 -33 0
-34 -35 0
-34 -36 0
-35 -36 0
-37 -38 0
-37 -39 0
-38 -39 0
-40 -41 0
-40 -42 0
-41 -42 0
-43 -44 0
-43 -45 0
-44 -45 0
-46 -47 0
-46 -48 0
-47 -48 0
-49 -50 0
-49 -51 0
-50 -51 0
-52 -53 0
-52 -54 0
-53 -54 0
-55 -56 0
-55 -57 0
-56 -57 0
-58 -59 0
-58 -60 0
-59 -60 0
-1 -10 0
-1 -31 0
-4 -10 0
-4 -55 0
-7 -19 0
-7 -58 0
-10 -1 0
-10 -4 0
-13 -19 0
-13 -55 0
-16 -43 0
-16 -49 0
-19 -7 0
-19 -13 0
-22 -31 0
-22 -58 0
-25 -34 0
-25 -46 0
-28 -34 0
-28 -46 0
-31 -1 0
-31 -22 0
-34 -25 0
-34 -28 0
-37 -43 0
-37 -52 0
-40 -49 0
-40 -52 0
-43 -16 0
-43 -37 0
-46 -25 0
-46 -28 0
-49 -16 0
-49 -40 0
-52 -37 0
-52 -40 0
-55 -4 0
-55 -13 0
-58 -7 0
-58 -22 0
-2 -11 0
-2 -32 0
-5 -11 0
-5 -56 0
-8 -20 0
-8 -59 0
-11 -2 0
-11 -5 0
-14 -20 0
-14 -56 0
-17 -44 0
-17 -50 0
-20 -8 0
-20 -14 0
-23 -32 0
-23 -59 0
-26 -35 0
-26 -47 0
-29 -35 0
-29 -47 0
-32 -2 0
-32 -23 0
-35 -26 0
-35 -29 0
-38 -44 0
-38 -53 0
-41 -50 0
-41 -53 0
-44 -17 0
-44 -38 0
-47 -26 0
-47 -29 0
-50 -17 0
-50 -41 0
-53 -38 0
-53 -41 0
-56 -5 0
-56 -14 0
-59 -8 0
-59 -23 0
-3 -12 0
-3 -33 0
-6 -12 0
-6 -57 0
-9 -21 0
-9 -60 0
-12 -3 0
-12 -6 0
-15 -21 0
-15 -57 0
-18 -45 0
-18 -51 0
-21 -9 0
-21 -15 0
-24 -33 0
-24 -60 0
-27 -36 0
-27 -48 0
-30 -36 0
-30 -48 0
-33 -3 0
-33 -24 0
-36 -27 0
-36 -30 0
-39 -45 0
-39 -54 0
-42 -51 0
-42 -54 0
-45 -18 0
-45 -39 0
-48 -27 0
-48 -30 0
-51 -18 0
-51 -42 0
-54 -39 0
-54 -42 0
-57 -6 0
-57 -15 0
-60 -9 0
-60 -24 0
